
  32    4
  10   10   10   10

   0   0   0   0   0   4 2 3 5 8 
   7   1   1   0   1   2 7 4 
   7   6   2   0   4   3 14 9 6 
   4   0   5   1   6   3 14 10 6 
   7   0   5   5   5   2 10 7 
   6   3   0   3   4   3 17 12 11 
  10   6   0   2   6   3 14 13 12 
   4   0   1   5   2   3 17 12 10 
   3   4   3   0   5   2 19 10 
   3   4   5   0   4   2 18 13 
   7   2   0   3   1   2 19 13 
   5   5   1   3   0   4 23 20 19 18 
   3   4   5   0   3   3 20 16 15 
   2   0   6   1   5   3 22 19 17 
   1   4   3   0   3   4 30 29 23 21 
   3   3   6   8   0   3 30 22 21 
   4   0   7   8   3   5 30 29 25 24 23 
   6   0   3   3   4   4 30 26 25 22 
   3   3   0   7   6   2 29 21 
   2   5   0   3   3   5 31 30 29 25 24 
   1   3   5   5   0   4 31 26 25 24 
   3   0   6   1   2   2 29 24 
   6   3   0   5   4   2 28 26 
   8   7   5   0   3   1 28 
   1   4   7   6   0   1 27 
   2   4   3   0   7   1 27 
   7   4   0   3   4   1 32
   1   3   3   0   3   1 32
   2   4   0   3   5   1 32
   7   0   1   5   3   1 32
   9   6   5   0   8   1 32
   0   0   0   0   0   0 
